WARNING: for repeatability, setting FPU to use double precision
============================[ Problem Statistics ]=============================
|                                                                             |
|  Number of variables:        230442                                         |
|  Number of clauses:          534052                                         |
|  Parse time:                   0.30 s                                       |
|                                                                             |
============================[ Search Statistics ]==============================
| Conflicts |          ORIGINAL         |          LEARNT          | Progress |
|           |    Vars  Clauses Literals |    Limit  Clauses Lit/Cl |          |
===============================================================================
|       100 |  127294   511937  1150568 |   187710      100     17 | 44.761 % |
|       250 |  127294   511937  1150568 |   206481      250     17 | 44.761 % |
|       475 |  127294   511937  1150568 |   227129      475     19 | 44.761 % |
|       812 |  127294   511937  1150568 |   249842      812     29 | 44.761 % |
===============================================================================
restarts              : 7
conflicts             : 887            (734 /sec)
decisions             : 18054          (0.00 % random) (14944 /sec)
propagations          : 3062620        (2535124 /sec)
conflict literals     : 26484          (5.32 % deleted)
Memory used           : 57.00 MB
CPU time              : 1.20808 s

SATISFIABLE
